
Gurobi 10.0.1 (linux64) logging started Sun Nov 26 15:56:30 2023

Set parameter LogFile to value "ArtificialInstance/ExperimentV2/S3T3K2/AdSp/gurobi91.txt"
Gurobi Optimizer version 10.0.1 build v10.0.1rc0 (linux64)

CPU model: AMD EPYC 7H12 64-Core Processor, instruction set [SSE2|AVX|AVX2]
Thread count: 128 physical cores, 128 logical processors, using up to 32 threads

Academic license 656792 - for non-commercial use only - registered to b.___@student.vu.nl
Optimize a model with 6784 rows, 6732 columns and 25422 nonzeros
Model fingerprint: 0xcb2d04dc
Variable types: 0 continuous, 6732 integer (6732 binary)
Coefficient statistics:
  Matrix range     [1e+00, 1e+00]
  Objective range  [1e+00, 2e+01]
  Bounds range     [1e+00, 1e+00]
  RHS range        [1e+00, 1e+00]
Presolve removed 960 rows and 1001 columns
Presolve time: 0.10s
Presolved: 5824 rows, 5731 columns, 22181 nonzeros
Variable types: 0 continuous, 5731 integer (5731 binary)

Root relaxation: objective 4.529064e+01, 2691 iterations, 0.10 seconds (0.08 work units)

    Nodes    |    Current Node    |     Objective Bounds      |     Work
 Expl Unexpl |  Obj  Depth IntInf | Incumbent    BestBd   Gap | It/Node Time

*    0     0               0      45.2906397   45.29064  0.00%     -    0s

Explored 1 nodes (2691 simplex iterations) in 0.24 seconds (0.17 work units)
Thread count was 32 (of 128 available processors)

Solution count 1: 45.2906 

Optimal solution found (tolerance 1.00e-04)
Best objective 4.529063971062e+01, best bound 4.529063971062e+01, gap 0.0000%
